6652
6533
6592
6390
6568
6607
6595
6705
6683
6645
6418
6627
6506
6499
6540
6512
6561
6484
6612
6524
6661
6549
6557
6630
6448
6630
6705
6572
6580
6449
6505
6653
6548
6650
6706
6489
6578
6537
6622
6601
6602
6584
6549
6635
6502
6628
6549
6573
6552
6617
6503
6601
6542
6607
6679
6528
6534
6539
6477
6491
6558
6689
6640
6472
6658
6681
6501
6527
6605
6705
6433
6726
6518
6504
6554
6610
6589
6655
6573
6643
6507
6646
6415
6625
6546
6555
6609
6459
6693
6585
6506
6635
6519
6500
6535
6591
6516
6613
6584
6510
